n_res = 4;
rc = [ 13, 11, 11, 10 ];
n_tasks = 30;
d = [ 4, 7, 8, 5, 7, 5, 1, 1, 4, 10, 2, 8, 7, 1, 5, 2, 3, 1, 1, 7, 4, 7, 8, 7, 4, 7, 4, 5, 7, 7 ];
rr = [| 4, 8, 10, 0, 0, 0, 0, 0, 0, 2, 0, 3, 0, 0, 0, 0, 0, 3, 0, 0, 10, 7, 8, 0, 0, 6, 0, 0, 2, 0
      | 0, 0, 0, 0, 0, 0, 5, 0, 0, 0, 0, 0, 10, 10, 0, 0, 0, 0, 0, 0, 0, 0, 0, 0, 0, 0, 8, 5, 0, 0
      | 0, 0, 0, 0, 6, 0, 0, 0, 2, 0, 10, 0, 0, 0, 1, 6, 7, 0, 5, 3, 0, 0, 0, 10, 0, 0, 0, 0, 0, 6
      | 0, 0, 0, 8, 0, 1, 0, 1, 0, 0, 0, 0, 0, 0, 0, 0, 0, 0, 0, 0, 0, 0, 0, 0, 10, 0, 0, 0, 0, 0 |];
suc = [ { 2 }, 
        { 1 }, 
        { 4 }, 
        { 3 }, 
        { 6 }, 
        { 5 }, 
        { 8 }, 
        { 7 }, 
        { 10 }, 
        { 9 }, 
        { 12 }, 
        { 11 }, 
        { 14 }, 
        { 13 }, 
        { 16 }, 
        { 15 }, 
        { 18 }, 
        { 17 }, 
        { 20 }, 
        { 19 }, 
        { 22 }, 
        { 21 }, 
        { 24 }, 
        { 23 }, 
        { 26 }, 
        { 25 }, 
        { 28 }, 
        { 27 }, 
        { 30 }, 
        { 29 }]; 
